
List of user-set options:

                                    Name   Value                used
                           linear_solver = ma57                  yes
                  ma57_automatic_scaling = yes                   yes
                                max_iter = 10000                 yes
                             mu_strategy = adaptive              yes
                             output_file = DynamicOptimization_lMtildeState_vAIPOPTinfo.txt  yes
                             print_level = 5                     yes
                      print_user_options = yes                   yes
                                     tol = 1e-006                yes
This is Ipopt version 3.11.0, running with linear solver ma57.

Number of nonzeros in equality constraint Jacobian...:    35281
Number of nonzeros in inequality constraint Jacobian.:     7596
Number of nonzeros in Lagrangian Hessian.............:    13860

Total number of variables............................:     8209
                     variables with only lower bounds:        0
                variables with lower and upper bounds:     8209
                     variables with only upper bounds:        0
Total number of equality constraints.................:     6301
Total number of inequality constraints...............:     3799
        inequality constraints with only lower bounds:     1890
   inequality constraints with lower and upper bounds:       19
        inequality constraints with only upper bounds:     1890

iter    objective    inf_pr   inf_du lg(mu)  ||d||  lg(rg) alpha_du alpha_pr  ls
   0 9.9999900e-003 1.65e+003 1.75e+000   0.0 0.00e+000    -  0.00e+000 0.00e+000   0
   1 6.4249508e-002 2.13e+004 3.48e+003   0.6 1.62e+001    -  7.18e-001 1.12e-001f  2
   2 9.2606757e-002 2.04e+004 6.98e+003   0.6 1.04e+001   2.0 9.31e-002 4.47e-002h  2
   3 3.5579561e-001 1.95e+004 1.71e+004   0.6 6.04e+000   2.4 2.00e-002 4.36e-002h  3
   4 1.4222862e+000 1.75e+004 1.82e+005   0.6 9.98e+000   2.9 1.81e-001 1.07e-001h  1
   5 1.4761315e+000 1.75e+004 1.82e+005   0.6 1.57e+001   3.3 9.35e-002 3.43e-003h  1
   6 2.4568514e+000 1.65e+004 3.66e+005   0.6 1.74e+001   3.7 2.04e-001 5.63e-002h  2
   7 3.6175248e+000 1.57e+004 1.09e+006   0.6 2.14e+001   4.1 6.28e-002 5.23e-002H  1
   8 3.6378494e+000 1.57e+004 1.09e+006   0.6 7.60e+001   4.6 2.55e-002 6.80e-004h  1
   9 3.6345720e+000 1.57e+004 1.08e+006   0.6 8.17e+001   4.1 2.08e-002 6.29e-004h  1
iter    objective    inf_pr   inf_du lg(mu)  ||d||  lg(rg) alpha_du alpha_pr  ls
  10 3.6445245e+000 1.56e+004 1.59e+006   0.6 1.30e+002   4.5 2.98e-002 3.39e-004h  1
  11 4.6631166e+000 1.56e+004 1.59e+006   0.6 1.35e+002   4.0 1.33e-003 9.53e-004H  1
  12 6.1649426e+000 1.51e+004 4.37e+008   0.6 1.36e+002   4.5 1.15e-002 3.19e-002h  1
  13 6.9514105e+000 1.48e+004 1.67e+010   0.6 1.45e+002   4.9 1.45e-003 2.59e-002f  1
  14 7.1746713e+000 1.47e+004 1.66e+010   0.6 1.28e+002   4.4 6.89e-003 6.13e-003h  1
  15 7.1781291e+000 1.47e+004 1.66e+010   0.6 1.13e+002   4.8 3.81e-002 6.95e-005h  1
  16r7.1781291e+000 1.47e+004 1.00e+003   2.5 0.00e+000   4.4 0.00e+000 3.45e-007R  4
  17r7.2814372e+000 6.62e+003 9.99e+002  -3.8 2.03e+005    -  1.02e-003 1.35e-003f  1
  18 7.5659455e+000 6.54e+003 3.22e+002   0.1 2.15e+002    -  3.00e-002 1.31e-002f  1
  19 7.5695704e+000 6.54e+003 4.00e+002   0.0 2.13e+002    -  2.06e-002 2.14e-004h  1
iter    objective    inf_pr   inf_du lg(mu)  ||d||  lg(rg) alpha_du alpha_pr  ls
  20 7.5770832e+000 6.53e+003 4.07e+006   1.6 7.57e+001   3.9 7.17e-001 3.06e-004h  1
  21 7.6187082e+000 6.53e+003 1.69e+007   3.5 6.05e+002   3.4 1.31e-002 1.07e-003h  1
  22 7.6243072e+000 6.53e+003 4.91e+008   3.4 1.25e+003   2.9 1.00e+000 1.56e-004h  1
  23 7.7141539e+000 6.50e+003 4.90e+008   3.8 1.95e+003    -  7.35e-003 3.60e-003f  1
  24 7.7721825e+000 6.49e+003 4.91e+008   3.8 2.39e+003    -  4.88e-003 2.17e-003f  1
  25 7.7825839e+000 6.49e+003 4.93e+008   3.8 8.82e+002    -  1.93e-003 3.99e-004h  1
  26 7.8036304e+000 6.48e+003 5.00e+008   3.8 9.01e+002    -  2.49e-003 8.57e-004h  1
  27r7.8036304e+000 6.48e+003 1.00e+003   2.2 0.00e+000    -  0.00e+000 4.59e-007R  4
  28r7.8512149e+000 2.50e+003 1.51e+003  -3.2 8.76e+004    -  2.86e-002 1.68e-003f  1
  29 7.8512430e+000 2.50e+003 7.81e+004   1.2 1.55e+003    -  3.79e-002 1.48e-006f  2
iter    objective    inf_pr   inf_du lg(mu)  ||d||  lg(rg) alpha_du alpha_pr  ls
  30 7.8516918e+000 2.50e+003 1.14e+005  -5.2 4.26e+003    -  4.43e-005 1.80e-005h  1
  31 7.8458798e+000 2.50e+003 7.64e+004   2.8 3.32e+003    -  3.77e-007 3.79e-005f  1
  32 7.8430479e+000 2.50e+003 9.94e+004   2.8 8.01e+003    -  4.77e-005 2.47e-005f  1
  33 7.8427777e+000 2.50e+003 1.20e+006   2.8 7.98e+003    -  5.33e-005 3.49e-006f  2
  34r7.8427777e+000 2.50e+003 1.00e+003   2.7 0.00e+000    -  0.00e+000 4.44e-007R  4
  35r8.8848043e+000 1.33e+003 9.94e+002  -3.6 4.12e+003    -  5.62e-003 9.13e-003f  1
  36r8.8848043e+000 1.33e+003 9.99e+002   1.6 0.00e+000    -  0.00e+000 1.92e-008R  2
  37r1.0160895e+001 8.07e+002 9.98e+002   0.4 1.54e+004    -  8.24e-004 1.49e-003f  1
  38 1.0096167e+001 8.06e+002 1.51e+003   1.0 4.34e+002    -  2.17e-002 2.28e-004f  1
  39 1.0122947e+001 8.06e+002 1.74e+004   1.1 1.74e+002    -  9.59e-002 3.93e-004h  1
iter    objective    inf_pr   inf_du lg(mu)  ||d||  lg(rg) alpha_du alpha_pr  ls
  40 1.0184689e+001 8.06e+002 7.39e+003   2.8 1.39e+004    -  2.54e-005 1.24e-004f  1
  41r1.0184689e+001 8.06e+002 9.99e+002   1.7 0.00e+000    -  0.00e+000 2.96e-007R  4
  42r1.4960250e+001 6.58e+002 9.93e+002   2.4 4.09e+003    -  8.69e-003 4.56e-003f  1
  43 1.4967375e+001 6.58e+002 4.62e+003   1.3 7.65e+001    -  1.76e-001 9.32e-005h  1
  44 1.4968541e+001 6.58e+002 7.14e+004  -5.1 2.62e+003    -  2.34e-003 1.27e-004h  1
  45 1.5099375e+001 6.58e+002 8.23e+005   2.9 1.36e+004    -  1.03e-003 6.30e-005f  1
  46r1.5099375e+001 6.58e+002 1.00e+003   2.8 0.00e+000    -  0.00e+000 3.05e-007R  5
  47r1.8293110e+001 5.52e+002 8.21e+002   1.5 3.81e+002    -  1.92e-001 4.16e-002f  1
  48 1.8291567e+001 5.52e+002 1.40e+002  -1.3 3.29e+001    -  2.42e-002 1.70e-004h  1
  49 1.8289200e+001 5.52e+002 3.50e+003  -5.2 5.92e+003    -  2.38e-003 9.52e-005h  1
iter    objective    inf_pr   inf_du lg(mu)  ||d||  lg(rg) alpha_du alpha_pr  ls
  50r1.8289200e+001 5.52e+002 9.99e+002   2.0 0.00e+000    -  0.00e+000 2.77e-007R  5
  51r2.3877921e+001 3.96e+002 9.22e+002   1.5 2.82e+002    -  7.82e-002 2.24e-002f  1
  52 2.6385757e+001 8.70e+002 5.62e+006   1.3 3.48e+002    -  4.95e-004 5.43e-002f  1
  53 2.6401791e+001 8.65e+002 5.59e+006   0.7 3.62e+001   2.4 1.48e-001 5.49e-003h  1
  54 2.6403051e+001 8.65e+002 5.59e+006   0.7 5.87e+001   2.9 2.58e-001 4.03e-004h  1
  55 2.6594875e+001 8.22e+002 4.93e+006   0.7 9.19e+000   3.3 1.67e-001 5.10e-002h  1
  56 2.6614981e+001 8.20e+002 4.95e+006   0.7 7.85e+001   3.7 1.67e-002 1.91e-003h  1
  57 2.6974510e+001 7.96e+002 4.31e+010   0.7 4.32e+001   6.0 2.40e-004 3.07e-002h  1
  58 2.6995218e+001 7.94e+002 4.30e+010   0.7 5.00e+001   5.5 1.20e-004 1.50e-003h  1
  59 3.2496146e+001 4.96e+002 2.71e+010   0.7 1.17e+001   5.9 2.80e-003 4.70e-001h  1
iter    objective    inf_pr   inf_du lg(mu)  ||d||  lg(rg) alpha_du alpha_pr  ls
  60 3.9184865e+001 4.34e+002 2.37e+010   0.7 5.15e+001   6.3 6.09e-004 1.30e-001h  1
  61 3.9772104e+001 4.29e+002 2.35e+010   2.2 4.91e+001   6.8 1.00e+000 1.20e-002h  1
  62 4.7957346e+001 3.62e+002 1.98e+010   3.4 4.98e+001   7.2 1.00e+000 1.64e-001h  1
  63 5.0177853e+001 3.43e+002 1.88e+010   3.8 4.19e+001   6.7 4.44e-001 5.30e-002h  1
  64 6.1505216e+001 2.55e+002 1.40e+010   3.8 4.11e+001   7.1 8.62e-001 2.76e-001h  1
  65 7.2014126e+001 1.79e+002 9.66e+009   3.8 3.10e+001   7.6 7.45e-002 3.39e-001h  1
  66 8.5281904e+001 8.91e+001 4.19e+009   3.8 2.10e+001   8.0 9.93e-002 6.32e-001h  1
  67 8.5895058e+001 8.25e+001 3.88e+009   3.8 8.04e+000   8.4 4.29e-002 7.62e-002h  1
  68 9.3373650e+001 2.15e+001 1.82e+010   3.8 7.48e+000   8.8 9.40e-003 1.00e+000h  1
  69 9.3410972e+001 4.20e+000 1.05e+010   3.8 2.97e-001   8.4 9.72e-001 1.00e+000h  1
iter    objective    inf_pr   inf_du lg(mu)  ||d||  lg(rg) alpha_du alpha_pr  ls
  70 9.3446626e+001 8.54e-002 3.49e+009   2.7 7.16e-002   9.7 1.00e+000 1.00e+000f  1
  71 9.3451248e+001 1.64e-003 2.22e+008   1.0 1.20e-002   9.2 1.00e+000 1.00e+000h  1
  72 9.3451294e+001 7.87e-007 2.45e+005  -0.7 1.49e-004   8.7 1.00e+000 1.00e+000h  1
  73 9.3451294e+001 2.26e-012 5.29e+000  -2.6 2.95e-008   8.3 1.00e+000 1.00e+000h  1
  74 9.3451294e+001 2.15e-012 3.54e-001  -2.7 5.94e-009   7.8 1.00e+000 1.00e+000h  1
  75 9.3451294e+001 2.06e-012 3.54e-001  -2.7 1.78e-008   7.3 1.00e+000 1.00e+000h  1
  76 9.3451294e+001 2.02e-012 3.54e-001  -2.7 5.34e-008   6.8 1.00e+000 1.00e+000h  1
  77 9.3451294e+001 1.78e-012 3.54e-001  -2.7 1.60e-007   6.3 1.00e+000 1.00e+000h  1
  78 9.3451293e+001 1.71e-012 3.54e-001  -2.7 4.81e-007   5.9 1.00e+000 1.00e+000h  1
  79 9.3451292e+001 2.22e-012 3.54e-001  -2.7 1.44e-006   5.4 1.00e+000 1.00e+000h  1
iter    objective    inf_pr   inf_du lg(mu)  ||d||  lg(rg) alpha_du alpha_pr  ls
  80 9.3451287e+001 6.61e-012 3.54e-001  -2.7 4.33e-006   4.9 1.00e+000 1.00e+000h  1
  81 9.3451274e+001 5.67e-011 3.55e-001  -4.8 1.30e-005   4.4 9.98e-001 1.00e+000h  1
  82 9.3451235e+001 5.16e-010 3.55e-001  -6.5 3.90e-005   4.0 1.00e+000 1.00e+000f  1
  83 9.3451118e+001 4.63e-009 3.55e-001  -8.4 1.17e-004   3.5 1.00e+000 1.00e+000f  1
  84 9.3450767e+001 4.16e-008 3.55e-001 -10.4 3.51e-004   3.0 1.00e+000 1.00e+000f  1
  85 9.3449714e+001 3.73e-007 3.55e-001 -11.0 1.05e-003   2.5 1.00e+000 1.00e+000f  1
  86 9.3446556e+001 3.32e-006 3.55e-001 -11.0 3.16e-003   2.1 1.00e+000 1.00e+000f  1
  87 9.3437085e+001 2.88e-005 3.54e-001 -11.0 9.47e-003   1.6 1.00e+000 1.00e+000f  1
  88 9.3408706e+001 2.34e-004 3.54e-001 -11.0 2.84e-002   1.1 1.00e+000 1.00e+000f  1
  89 9.3323841e+001 1.59e-003 3.53e-001 -11.0 8.49e-002   0.6 1.00e+000 1.00e+000f  1
iter    objective    inf_pr   inf_du lg(mu)  ||d||  lg(rg) alpha_du alpha_pr  ls
  90 9.3070955e+001 7.16e-003 3.50e-001 -11.0 2.53e-001   0.1 1.00e+000 1.00e+000f  1
  91 9.2320761e+001 1.71e-002 3.47e-001 -11.0 7.50e-001  -0.3 1.00e+000 1.00e+000f  1
  92 9.0115541e+001 2.32e-002 3.40e-001 -11.0 2.21e+000  -0.8 1.00e+000 1.00e+000f  1
  93 8.9814318e+001 2.22e-002 3.39e-001  -9.0 6.28e+000  -1.3 1.00e+000 4.80e-002f  1
  94 8.9810853e+001 2.21e-002 3.39e-001  -7.0 1.76e+001  -1.8 1.00e+000 1.97e-004f  1
  95 8.6969915e+001 8.12e-002 4.10e+000  -5.8 4.47e+001  -2.2 1.00e+000 6.36e-002f  1
  96 7.7221956e+001 3.67e-001 1.86e+000  -4.9 9.35e+001  -2.7 1.00e+000 1.04e-001f  1
  97 6.9830714e+001 5.52e-001 4.01e-001  -2.9 1.42e+002  -3.2 6.92e-001 5.19e-002f  1
  98 6.4457078e+001 6.36e-001 2.40e+000  -2.7 7.91e+001  -2.8 9.33e-001 6.80e-002f  1
  99 4.0478370e+001 2.87e+000 4.08e-001  -2.9 1.19e+002  -3.2 9.97e-001 2.01e-001f  1
iter    objective    inf_pr   inf_du lg(mu)  ||d||  lg(rg) alpha_du alpha_pr  ls
 100 3.8231338e+001 2.24e+000 1.71e+000  -2.3 9.20e+000  -1.9 1.00e+000 2.44e-001f  1
 101 2.4473923e+001 2.69e+000 1.39e+000  -2.6 2.22e+001  -2.4 1.00e+000 6.19e-001f  1
 102 2.2692957e+001 1.97e+000 1.12e+001  -2.4 4.27e+000  -2.0 1.00e+000 4.17e-001h  1
 103 2.2416486e+001 1.98e+000 7.13e+000  -2.4 2.16e+000  -1.5 9.99e-001 2.55e-001h  1
 104 1.8533513e+001 4.43e-001 1.35e+001  -2.2 3.88e+000  -2.0 1.00e+000 1.00e+000f  1
 105 1.8678650e+001 3.47e-002 4.09e+000  -2.9 1.45e-001  -0.7 1.00e+000 1.00e+000h  1
 106 1.7873984e+001 3.37e-002 7.02e+000  -3.6 8.05e-001  -1.2 1.00e+000 1.00e+000f  1
 107 1.7565851e+001 2.97e-002 6.03e+000  -4.4 1.99e+000  -1.6 1.00e+000 1.55e-001f  1
 108 1.7329746e+001 2.23e-002 4.30e+000  -5.3 7.65e-001  -1.2 1.00e+000 3.09e-001f  1
 109 1.6769816e+001 1.97e-002 3.28e+000  -5.9 2.04e+000  -1.7 1.00e+000 2.74e-001f  1
iter    objective    inf_pr   inf_du lg(mu)  ||d||  lg(rg) alpha_du alpha_pr  ls
 110 1.6395879e+001 1.33e-002 1.75e+000  -4.6 7.48e-001  -1.3 1.00e+000 5.00e-001f  1
 111 1.6163976e+001 1.24e-002 1.54e+000  -5.0 1.97e+000  -1.7 1.00e+000 1.18e-001f  1
 112 1.5691446e+001 1.56e-002 1.40e+000  -3.6 4.77e+000  -2.2 1.00e+000 9.91e-002f  1
 113 1.4554119e+001 3.92e-002 1.24e+000  -3.3 9.76e+000  -2.7 1.00e+000 1.17e-001f  1
 114 1.1757384e+001 1.80e-001 1.07e+000  -2.3 1.43e+001  -3.2 9.60e-001 1.96e-001f  1
 115 9.4635481e+000 2.85e-001 1.19e+000  -2.5 7.77e+001    -  2.23e-001 1.07e-001f  1
 116 7.2586853e+000 3.90e-001 1.04e+000  -8.4 8.99e+001    -  3.29e-001 1.27e-001f  1
 117 3.0976959e+000 9.34e-001 8.13e-001  -3.3 2.32e+001    -  3.60e-001 3.19e-001f  1
 118 9.3100688e-001 9.32e-001 6.51e-001  -2.7 1.33e+001  -3.7 1.00e+000 6.47e-001f  1
 119 1.8087556e+000 1.01e+000 2.26e+000  -2.9 8.78e-001  -1.4 9.97e-001 1.00e+000h  1
iter    objective    inf_pr   inf_du lg(mu)  ||d||  lg(rg) alpha_du alpha_pr  ls
 120 1.6451536e+000 2.60e-002 4.80e-001  -3.7 2.52e-001  -1.9 1.00e+000 1.00e+000h  1
 121 1.4243615e+000 3.33e-002 1.03e+000  -4.6 7.02e-001  -2.4 1.00e+000 6.88e-001h  1
 122 1.2096924e+000 8.53e-002 1.51e+000  -4.3 1.53e+000  -2.9 1.00e+000 4.82e-001h  1
 123 1.0754941e+000 1.82e-001 1.90e+000  -4.6 3.89e+000  -3.3 1.00e+000 2.44e-001h  1
 124 9.5847375e-001 1.34e-001 1.27e+000  -4.0 1.07e+000  -2.9 1.00e+000 6.42e-001h  1
 125 8.6111507e-001 7.68e-002 7.95e-001  -4.5 2.06e+000  -3.4 1.00e+000 4.29e-001h  1
 126 7.6892747e-001 4.06e-002 4.28e-001  -4.2 3.17e+000  -3.9 1.00e+000 4.86e-001h  1
 127 6.6586305e-001 3.42e-001 2.04e-001  -4.5 3.83e+000  -4.3 1.00e+000 9.44e-001h  1
 128 6.9118367e-001 1.86e-002 2.39e-002  -4.7 9.04e-001  -3.9 1.00e+000 1.00e+000h  1
 129 6.5924327e-001 8.89e-002 4.60e-003  -4.4 1.43e+000  -4.4 1.00e+000 1.00e+000h  1
iter    objective    inf_pr   inf_du lg(mu)  ||d||  lg(rg) alpha_du alpha_pr  ls
 130 5.8750429e-001 8.64e-002 3.83e-002  -4.1 3.06e+000  -4.9 1.00e+000 1.00e+000h  1
 131 5.6162739e-001 1.05e-001 2.81e-002  -4.4 1.13e+000  -4.4 6.41e-001 1.00e+000h  1
 132 5.1758152e-001 3.47e-001 2.47e-002  -4.0 3.99e+000  -4.9 1.00e+000 1.00e+000h  1
 133 4.4194483e-001 1.88e-001 1.57e-002  -4.1 4.14e+000  -5.4 1.00e+000 1.00e+000h  1
 134 3.2810915e-001 4.05e-001 2.34e-002  -4.6 6.85e+000  -5.9 1.00e+000 1.00e+000h  1
 135 3.4025809e-001 2.48e-002 2.11e-002  -4.9 2.49e-001  -3.6 1.00e+000 1.00e+000h  1
 136 3.3386465e-001 2.72e-003 2.68e-004  -5.3 3.90e-001  -4.1 1.00e+000 1.00e+000h  1
 137 3.3099937e-001 2.58e-003 5.26e-004  -6.2 1.89e-001  -3.7 1.00e+000 9.98e-001h  1
 138 3.2694579e-001 1.26e-003 1.11e-003  -5.2 3.79e-001  -4.2 1.00e+000 7.71e-001h  1
 139 3.5221730e-001 1.04e-001 1.14e-002  -3.7 9.41e+000  -4.6 2.14e-001 2.43e-001f  1
iter    objective    inf_pr   inf_du lg(mu)  ||d||  lg(rg) alpha_du alpha_pr  ls
 140 3.5104518e-001 3.48e-001 2.12e-002  -4.4 7.07e+000  -4.2 9.49e-002 1.90e-001h  1
 141 3.4641109e-001 1.65e-001 5.99e-003  -4.4 9.05e-001  -4.7 1.00e+000 6.63e-001h  1
 142 3.4398157e-001 2.40e-002 7.03e-003  -4.4 8.26e-001  -4.3 1.00e+000 8.67e-001h  1
 143 3.3726607e-001 1.01e-002 1.18e-003  -4.4 7.43e-001  -4.7 1.00e+000 1.00e+000h  1
 144 3.2851536e-001 6.27e-003 4.64e-004  -4.4 1.57e+000  -5.2 1.00e+000 1.00e+000h  1
 145 3.1953723e-001 1.23e-002 1.26e-003  -4.4 2.13e+000  -5.7 1.00e+000 1.00e+000h  1
 146 3.0364968e-001 4.53e-002 4.16e-003 -10.4 9.58e+001    -  1.83e-001 2.26e-001h  1
 147 2.7630189e-001 1.73e-001 6.06e-003  -4.8 1.10e+001    -  9.53e-001 1.00e+000h  1
 148 3.1414310e-001 3.37e-001 1.18e-002  -4.4 2.05e+001    -  1.00e+000 1.00e+000h  1
 149 3.0202604e-001 7.23e-002 2.63e-003  -4.5 1.15e+001    -  1.00e+000 1.00e+000h  1
iter    objective    inf_pr   inf_du lg(mu)  ||d||  lg(rg) alpha_du alpha_pr  ls
 150 2.6992922e-001 1.56e-001 5.99e-003  -5.0 8.63e+000    -  9.91e-001 1.00e+000h  1
 151 2.6458076e-001 5.03e-002 2.20e-003  -5.1 1.15e+001    -  1.00e+000 1.00e+000h  1
 152 2.6388062e-001 3.04e-002 6.70e-003  -5.2 1.58e+000  -6.2 1.00e+000 1.00e+000h  1
 153 2.5905293e-001 1.81e-002 4.27e-003  -5.4 2.51e+000  -6.7 1.00e+000 1.00e+000h  1
 154 2.5859460e-001 2.41e-002 9.33e-004  -5.4 5.12e-001  -5.3 9.96e-001 1.00e+000h  1
 155 2.6260630e-001 4.04e-002 1.46e-003  -5.2 6.50e+000    -  1.00e+000 8.12e-001h  1
 156 2.6187884e-001 1.47e-002 1.11e-003  -5.3 1.94e+000  -4.9 1.00e+000 1.00e+000h  1
 157 2.6137301e-001 1.76e-002 1.59e-003  -5.3 7.82e-001  -5.4 5.73e-001 1.00e+000h  1
 158 2.5847999e-001 6.67e-003 1.54e-003  -5.4 5.86e+000    -  8.66e-001 1.00e+000h  1
 159 2.6193701e-001 6.01e-002 1.71e-003  -5.0 2.99e+001    -  4.33e-001 3.60e-001h  1
iter    objective    inf_pr   inf_du lg(mu)  ||d||  lg(rg) alpha_du alpha_pr  ls
 160 2.6066308e-001 2.86e-002 6.04e-004  -5.3 6.25e+000    -  1.00e+000 1.00e+000h  1
 161 2.6065241e-001 7.06e-004 1.71e-004  -5.3 3.17e+000    -  1.00e+000 1.00e+000h  1
 162 2.5410511e-001 2.32e-002 9.03e-004  -6.0 8.27e+000    -  1.00e+000 9.46e-001h  1
 163 2.5348693e-001 3.82e-003 1.96e-004  -6.0 5.49e+000    -  1.00e+000 1.00e+000h  1
 164 2.5247696e-001 2.66e-003 9.24e-005  -6.4 4.89e+000    -  9.94e-001 1.00e+000h  1
 165 2.5204791e-001 1.36e-003 1.55e-004  -6.9 3.63e+000    -  9.96e-001 1.00e+000h  1
 166 2.5195933e-001 2.59e-004 1.01e-004  -7.2 1.84e+000    -  1.00e+000 1.00e+000h  1
 167 2.5189204e-001 1.26e-004 5.64e-005  -7.7 1.22e+000    -  1.00e+000 1.00e+000h  1
 168 2.5188043e-001 2.64e-005 4.02e-006  -7.9 6.26e-001    -  1.00e+000 1.00e+000h  1
 169 2.5186512e-001 1.87e-005 2.34e-006  -8.4 5.47e-001    -  1.00e+000 9.96e-001h  1
iter    objective    inf_pr   inf_du lg(mu)  ||d||  lg(rg) alpha_du alpha_pr  ls
 170 2.5186236e-001 3.75e-006 3.49e-007  -8.8 3.79e-001    -  1.00e+000 1.00e+000h  1
 171 2.5186112e-001 8.67e-007 2.29e-006  -9.0 1.90e-001    -  9.89e-001 1.00e+000h  1
 172 2.5185995e-001 5.36e-007 6.57e-008 -10.0 1.74e-001    -  1.00e+000 1.00e+000h  1

Number of Iterations....: 172

                                   (scaled)                 (unscaled)
Objective...............:  2.5185994576054410e-001   2.5185994576054410e-001
Dual infeasibility......:  6.5680446753862493e-008   6.5680446753862493e-008
Constraint violation....:  2.4902504717395694e-007   5.3591328352808887e-007
Complementarity.........:  3.3603698678732169e-010   3.3603698678732169e-010
Overall NLP error.......:  2.4902504717395694e-007   5.3591328352808887e-007


Number of objective function evaluations             = 216
Number of objective gradient evaluations             = 173
Number of equality constraint evaluations            = 218
Number of inequality constraint evaluations          = 218
Number of equality constraint Jacobian evaluations   = 180
Number of inequality constraint Jacobian evaluations = 180
Number of Lagrangian Hessian evaluations             = 172
Total CPU secs in IPOPT (w/o function evaluations)   =     21.084
Total CPU secs in NLP function evaluations           =      5.718

EXIT: Optimal Solution Found.
